15
1 0 4
2 0 11
2 1 27
3 0 27
3 1 49
3 2 14
4 0 10
4 1 37
4 2 47
4 3 17
5 0 50
5 1 1
5 2 16
5 3 30
5 4 41
6 0 2
6 1 6
6 2 6
6 3 2
6 4 4
6 5 45
7 0 5
7 1 48
7 2 37
7 3 19
7 4 45
7 5 38
7 6 41
8 0 15
8 1 47
8 2 26
8 3 2
8 4 31
8 5 38
8 6 28
8 7 37
9 0 25
9 1 2
9 2 36
9 3 24
9 4 25
9 5 9
9 6 5
9 7 23
9 8 38
10 0 36
10 1 5
10 2 6
10 3 13
10 4 49
10 5 6
10 6 5
10 7 32
10 8 23
10 9 17
11 0 43
11 1 32
11 2 44
11 3 48
11 4 6
11 5 33
11 6 49
11 7 19
11 8 18
11 9 40
11 10 20
12 0 40
12 1 44
12 2 8
12 3 23
12 4 15
12 5 1
12 6 36
12 7 13
12 8 37
12 9 36
12 10 35
12 11 44
13 0 20
13 1 27
13 2 19
13 3 9
13 4 34
13 5 33
13 6 35
13 7 40
13 8 9
13 9 29
13 10 16
13 11 14
13 12 44
14 0 27
14 1 33
14 2 6
14 3 20
14 4 46
14 5 13
14 6 36
14 7 15
14 8 49
14 9 29
14 10 7
14 11 8
14 12 43
14 13 44
